asp/input/in_50_25_7_1.lp
#const n = 50.
#const k = 25.
#const h = 7.
tile(1,9,13).
tile(2,18,13).
tile(3,22,24).
tile(4,16,9).
tile(5,13,4).
tile(6,24,22).
tile(7,25,6).
tile(8,8,21).
tile(9,3,11).
tile(10,22,19).
tile(11,11,11).
tile(12,21,13).
tile(13,9,11).
tile(14,9,7).
tile(15,20,12).
tile(16,20,11).
tile(17,8,10).
tile(18,23,6).
tile(19,9,4).
tile(20,14,25).
tile(21,20,24).
tile(22,20,16).
tile(23,5,10).
tile(24,10,19).
tile(25,21,14).
tile(26,19,16).
tile(27,21,3).
tile(28,25,13).
tile(29,13,20).
tile(30,18,11).
tile(31,4,9).
tile(32,5,15).
tile(33,10,20).
tile(34,20,16).
tile(35,5,16).
tile(36,18,6).
tile(37,18,17).
tile(38,12,16).
tile(39,3,21).
tile(40,25,2).
tile(41,23,12).
tile(42,14,9).
tile(43,10,13).
tile(44,14,8).
tile(45,4,17).
tile(46,24,12).
tile(47,4,5).
tile(48,8,17).
tile(49,18,2).
tile(50,2,22).
