minizinc/input/in_50_25_7_1.dzn
n = 50;
k = 25;
h = 7;
tiles = array2d(1..n, 1..2,
[ 9,13
, 18,13
, 22,24
, 16,9
, 13,4
, 24,22
, 25,6
, 8,21
, 3,11
, 22,19
, 11,11
, 21,13
, 9,11
, 9,7
, 20,12
, 20,11
, 8,10
, 23,6
, 9,4
, 14,25
, 20,24
, 20,16
, 5,10
, 10,19
, 21,14
, 19,16
, 21,3
, 25,13
, 13,20
, 18,11
, 4,9
, 5,15
, 10,20
, 20,16
, 5,16
, 18,6
, 18,17
, 12,16
, 3,21
, 25,2
, 23,12
, 14,9
, 10,13
, 14,8
, 4,17
, 24,12
, 4,5
, 8,17
, 18,2
, 2,22
]);